data;

param num_top:=4;

#nodes and edges of the physical network
param n := 7;

set E := (1,2) (1,7) (2,3) (2,6) (2,7) (3,4) (3,6) (4,5) (4,6) (5,6) (6,7) ;

#nodes and edges of the virtual networks
set Nl[1] := 7 6 3 2 ;
set Nl[2] := 4 5 1 2 ;
set Nl[3] := 1 2 5 4 ;
set Nl[4] := 5 2 3 6 ;

set El[1] := (6,7) (3,6) (2,3) (2,7) ;
set El[2] := (4,5) (1,5) (1,2) (2,4) ;
set El[3] := (1,2) (2,5) (4,5) (1,4) ;
set El[4] := (2,5) (2,3) (3,6) (5,6) ;
